20	5
0	7	2	1	6	7	4	3	5
1	2	10	13
2	2	15	17
3	1	8
4	1	19
5	3	18	10	17
6	1	9
7	1	19
8	0
9	1	11
10	3	15	19	8
11	1	13
12	2	20	19
13	2	17	14
14	1	20
15	1	14
16	1	12
17	1	16
18	2	15	8
19	1	21
20	1	21
21	0
0	0	0	0	0	0	0
1	10	4	0	0	0	4
2	1	0	0	0	5	0
3	10	5	1	1	0	4
4	4	4	0	3	0	0
5	9	0	0	0	0	4
6	7	0	3	0	0	0
7	1	2	5	3	5	4
8	8	0	4	1	0	1
9	4	3	4	2	1	1
10	5	4	0	0	2	0
11	8	0	0	0	3	0
12	1	0	0	1	0	0
13	10	4	2	3	0	5
14	6	2	0	3	0	0
15	9	2	4	4	4	0
16	2	5	0	2	5	0
17	8	0	1	5	0	0
18	10	4	0	0	0	5
19	4	2	0	1	5	0
20	4	0	2	0	5	0
21	0	0	0	0	0	0
7	5	5	5	7
